
 102   30
  10   10   10   10   10   10   10   10   10   10   10   10   10   10   10   10   10   10   10   10   10   10   10   10   10   10   10   10   10   10

   0   0   0   0   0   0   0   0   0   0   0   0   0   0   0   0   0   0   0   0   0   0   0   0   0   0   0   0   0   0   0  28 2 3 4 5 6 7 8 9 10 11 12 13 14 15 16 17 18 19 21 22 23 24 26 28 29 36 39 41 
   7   0   0   0   0   0   0   0   0   0   0   0   0   0   0   0   0   0   6   0   0   0   0   0   1   0   0   0   0   0   0   9 101 84 59 54 48 44 40 27 20 
   5   1   0   1   0   3   0   0   0   0   3   0   0   0   1   0   0   3   4   0   0   5   2   0   0   0   0   0   0   0   0  14 79 66 64 62 56 55 54 52 48 46 38 34 33 32 
   2   0   3   0   0   0   2   0   0   0   0   0   0   0   0   0   0   0   0   0   0   0   0   0   8   0   0   0   0   0   0  14 79 68 66 65 62 59 58 55 53 51 49 45 35 33 
   5   0   0   0   0   9   0   0   0   0   0   0   0   0   0   0   0   0   0   0   0   0   0   1   0   0   0   0   0   0   0  20 88 86 85 79 78 73 71 70 68 62 61 58 56 55 54 51 50 49 38 34 
   5   0   0   0   0   0   0   0   0   0   0   0   0   0   0   0   0   0   0   1   0   0   3   0   0   0   1   0   0   4   0  16 101 86 79 77 72 71 69 63 62 59 58 52 43 40 37 31 
   4   0   0   0   0   0   0   0   0   1   0   0   2   1   0   0   0   0   0   0   3   0   0   0   0   0   0   1   0   0   0  12 84 79 71 70 69 68 64 55 53 44 37 25 
   5   0   0   0   0   0   0   0   0   0   0   0   0   0   0   0   0   0   0   0   0   0   0   0   0   0   0   0   1   0   0  12 100 79 78 73 62 58 52 51 46 45 33 31 
   5   0   0   0   1   0   4   0   0   0   0   0   0   0   0   0   3   0   0   8   0   0  10   0   3   0   0   8   0   0   3  12 79 70 69 68 63 58 57 46 45 44 43 31 
  10   0   0   0   0   0   0   0   0   0   0   0   0   5   0   0   0   0   0   0   0   0   0   0   0   0   0   0   0   0   0  18 101 89 87 85 84 76 71 70 69 67 62 60 59 58 52 45 44 40 
   4   0   0   0   0   0   9   0   0   0   0   0   0  10   7   0   0   0   4   0   0   3   0   0   0   0   0   0   0   0   0  15 89 87 85 84 77 70 69 68 61 58 54 50 43 40 35 
   9   0   0   0   0   7   0   0   0   0   0   2   0   0   0   0   0   0   0   0   0   0   4   0   0   0   0   0   0   0   0  16 101 99 95 84 79 77 70 69 68 65 64 62 58 56 43 30 
   6   0   6   0   0   0   0   0   0   0   0   0   0   0   0   0   0   0   0   0   3   0   0   0   0   0   0   0   6   0   0  14 101 100 88 85 79 77 65 62 59 58 48 43 40 33 
   6   0   5   0   0   0   0   0   0   0   8   0   3   0   0   1   0   0   0   0   0   0   0   0   0   0   0   0   6   0   0  13 100 87 85 79 78 71 68 65 55 47 45 43 37 
   8   0   0   0   0   8   0   0   0   0   0   0   0   0   0   7   0   0   0   0   0   0   0   0   0   0   0   0   6   0   0  11 89 87 68 67 65 61 59 57 54 40 35 
   5   0   0   0   0   0   0   0   0   0   0   0   0   0   0   7   2   0   0   4   0   0   0   0   0   2   0   0   0   0   0  11 87 84 71 70 68 58 57 49 45 42 40 
   9   0   0   0   0   0   0   0   1   0   0   0   0   0   0   0   0   0   0   0   0   0   0   0   4   9   0   0   0   0   0  17 100 97 96 89 87 84 79 73 71 68 64 62 60 59 55 48 45 
   8   0   0   0   0   0   0   0   7   0   0   0   0   0   0   0   0   0  10   0   0   0   0   0   0   0   0   0   0   6   0  13 96 89 87 84 73 67 66 57 56 55 52 51 45 
   8   0   0   0   0   0   0   1   0   0   0   7   0   0   4   0   0   7   0   0   0   0   0   0   0   0   0   0   0   0   0  11 101 100 87 85 70 69 68 57 48 45 40 
   4   9   3   0   0   8   0  10   0   7   0   0   0   0   0   0   0   0   0   0   0   0   5   0   0   0   7   0   0   0   0  12 96 89 85 73 71 70 67 65 55 50 45 33 
  10   0   0   0   0   0   0   6   0   0  10   0   0   0   0   0   0  10   7   0   6   0   0   0   7   8   0   0   0   0   0   8 100 89 88 85 67 58 40 33 
   4   0   0   0   0   0   0   7   0   0   7   0   0   6   0   0   0   7   0   0   0   0   0   0   0   6   0   0   0   0   0  20 99 98 95 93 89 88 87 86 79 78 77 74 68 64 62 61 59 58 57 50 
   8   0   0   0   0   0   0   0   0   0   5   0   0   0   0   0   9   0   0   0   0   0   0   0   0   0   0   0   8   0   0  11 97 89 79 70 69 66 63 61 60 48 44 
  10   0   0   0   0   0   0   0   0   0   6   7   8   0   0   0   0   0   0   0   4   0   6   0   0  10   0   0   0   0   0  11 99 98 88 87 86 84 78 68 61 49 43 
   1   0   5   0   0   0   3   0   0   0   0   0   0   0   0   0   0   0   0   0   0   0   0   0   0   0   0   0   0   0   8  12 101 100 97 95 91 89 87 75 73 58 57 45 
   2   0   0   0   0   0   0   0   7   0   0   0   0   8   0   0   0   0   0   0   0   0   0   0   0   0   0   0   0   9   0  12 100 97 96 87 76 75 73 68 67 58 55 45 
   5   0   0   0   0   0   7   0   7   0   0   0   0   0   0   0   0   0   0   0   0   0   0   0   0   0   0   0   0   0   0  15 99 97 96 89 88 78 76 73 68 67 64 63 60 56 55 
   2   0   0   0   0   0   0   0   0   0   0   0   0   0   0   0   0   6   0   0   0   0   0   5   7   0   0   0  10   0   8  14 99 98 97 90 89 88 85 77 75 73 70 67 63 57 
   5   0   0   0   0   0   0   0   4   0   0   5   0   0   0   0   0   0   0   0   0   0   0   0   0   0   5   0   0   0   0  11 101 98 97 92 87 77 75 66 60 55 48 
   8   4   0   0   0   0   0   0   0   8   0   0   9   9   0   0   0   0   0   0   0   0   6   0   0   0   0   0   0   0   0  15 100 98 96 94 93 92 90 89 88 87 86 78 73 59 57 
   6   0   0   0   6   0   0   0   0   0   0   0   0   5   0   0   5   0   0   0   0   0   0   0   0   0   0   0   0   0   0   9 97 96 89 85 84 75 61 55 48 
   2   0   2   4   0   0   0   0   0   0   0   0   0   0   0   0   8   0   0   0   0   8   0   0   5   0   0   0   0   0   0  12 98 96 95 94 93 89 87 75 73 67 57 53 
  10   0   0   0   0   0   0   0   0   0   3   0   0   0   0   0   0   0   0   0   7   0   0   0   0   0   0   0   0   4   0  13 99 98 97 95 93 91 90 87 86 82 75 61 57 
   2   0   0   0   0   0   0   0   0   0   0   7   0   0   0   0   0   0   0   0   0   0   8   0   0   0   0   0   5   0   0  13 98 97 96 94 93 92 91 89 84 77 75 69 57 
   9   8   0  10   0   0   0   0   0   0   0   0   0   0   0   0   0   0   0   0   0   0   0   0   0   0   0   0   7   0   0  10 101 99 97 88 86 83 78 73 63 56 
   7   0   0   4   2   0   0   0   0   0   0   0   0   0   9   0   0   6   0   0   0   0   6   0   6   0   7   6   6   0   0  10 100 95 93 91 77 76 74 68 61 58 
   2   0   0   0   0   0   0   0   0   0   6   0   0   0   6   0   0   0   0   0   0   0   0   0   0   0   0   0   0   9   0   5 96 75 73 60 48 
   1   0   0   0   0   0   0   0   0   0   0   0   0   0   0   0   0   0   0   0   0   0   0   0   0   0   6   0   0   0   0  11 96 95 93 90 87 83 77 76 74 67 59 
   9   0   0   0   0   0   7   0   0   5   0   6   0   0   0   0   0   0   0   0   0   0   0   0   0   0   0   0   0   0   0  11 98 97 96 94 93 92 77 76 73 67 64 
   3   0   0   6   0   0   0   0   0   0   0   0   0   0   0   0   0   0   0   0   0   0   0   0   0   0   0   0   0   0   0  10 98 97 96 94 93 92 83 78 75 55 
   2   0   0   0   0   0   0   0   0   0  10   0   0   0   0   0   0   0   0   8  10   0   0   0   0   0   0   0   0   0   0   4 75 74 61 48 
   1   0   0   0   0   0   0  10   0   0  10   5   0   0   0   0   6   0   0   0   4   0   0   4   0   0   0   0   0   0   0  11 98 96 95 92 91 90 89 85 82 74 60 
  10   0   0   9   0   0   0   0   0   6   0   9   0   0   0   0   0   0   0   0   0   0   0   0   0   0   9   0   0   0   0   9 97 94 90 82 76 75 73 67 60 
   8   0   0   0   0   0   4   0   0   0   0   0   0   0   0   0   0   0   0   0   0   0   0   0   0   0   0   0   0   8   0   9 100 96 95 91 83 78 77 75 73 
   7   0   7   0   0   0   0   0   0   0   0   0   0   0   0   0   0   0   7   0   0   0   0   0   0   0   7   0   8   0   8   8 99 98 93 88 86 77 74 61 
   4   0   0   0   0   0   9   0   0   0   6   0  10   0   0   6   0   0   0   0   0   0   0   6   0   0   0   0   0   0   0   9 98 92 91 90 87 83 77 75 74 
   6   0   0   0   0   0   0   0   0   0   0   0   0   0   0   0   0   0   5   0   7   0   0   0   0   5   0   0   0   0   0   8 98 97 96 94 90 82 67 60 
   9   0   7   0   0   3   0   0   0   0   0   0   0   0   7   8   0   0   0   5   0   0   0   0   0   0   0   0   0   0   0   8 99 94 93 90 83 82 76 67 
   6   0   0   0   0   0   0   0   0   0   0   0   0   0   0   0   0   0   0   0   0   0   0   0   0   6   5   0   0   0   0   8 96 95 93 92 89 83 75 67 
   5   0   0   0  10   0   0   0   0   5   0   0   0   0   0   0   3   0   0   0   8   0   0   0   0   0   0   0   8   0   0   6 94 92 90 82 75 60 
  10   0   0   0   0   0  10   0   0   0   0   0   0   0   7   7   0   0   0   0   0   0   0   0   0   0   0   0   0   0   7   6 99 94 83 81 77 69 
   1   0   0   0   0   0   0   0   6   8   4   4   0   6   0   0   0   7   0   0   0   4   0   0   9   4   0   0   0   0   0   5 97 94 88 80 68 
   9   0   0   0   0   4   0   0   0   0   0   0   0   0   0   0   0   0   5   0   0   0   0   0   0   0   4   0   4   4   0   5 92 90 85 76 74 
   6   0   0   0   0   0   0   0   0   0   7   0   0   0   0   0   0   0   0   8   5   0   0   0   0   7   0   0   0   0   0   5 100 94 91 82 81 
   3   0   0   0   0   6   0   5   0   5   0   0   0   0   6   0   0   0   0   0   0   0   0   0   0   0   0   0   6   0   0   4 95 90 82 74 
   8   0   0   0   0   0   6   0   0   0   0   0   0   0   0   0   6   0   0   0   2   0   0   0   7   0   0   0   0   0   0   4 100 93 82 75 
   1   0   0   7   0   0   0   0   9   0   0   0   0   0   0   0   0   0   0   7   0   0   0   0   0   5   0   0   0   0   0   2 76 60 
   8   4   0   0   0   7   0   0   0   0   6   0   0   0   0   0   0   0   0   0   5   0   0   0   0   0   0   9   0   0   0   4 92 90 82 81 
   2   0   0   0   0   0   0   0   0   0   0   0   0   0   0   0   5   0   4   0   0   0   0   9   0   0   0   0   0   0   0   3 91 82 75 
   7   0   8   0   0   0   2   0   0   0   0   0   0   0   0   0   0   0   0   0   6   0   0   0   0   0   0   0   0   0   0   3 83 81 80 
   5   0   0   0   0   0   0   0   4   0   0   0   0   0   0   0  10   0   0   0   0   0   0   0   0   0   9   0   0   0   0   3 94 92 80 
   1   0   0   0   0   0   0   0   0   0   0   8   0   4   0   0   0   0   7   0   0   0   0   0   8   0   0   0   0   0   0   3 91 90 82 
   4   0   0   0   0   0   0   0   0   0   0   0   0   0   0   0   0   0   0   0   0  10   0   0   0   0   0   0   0   0   0   3 100 93 92 
   4   0   0   0   0   0   0   0   0   0   0   0   4   0   0   3   0   0   0   0   0   0   8   0   0   0   0   0   0  10   0   3 91 81 80 
   3   0   0   0   0   5   0   0   0   0   0   0   0   0   3   0   0   0   0   0   0   0   0   0   0   0   5   0   0   0   0   2 83 76 
   3   0   0   0   0   0   0   0   7   0   0   5   0   0   6   6   0  10   6   0   0   0   0   0   0   7   0   0   0   0   0   2 100 74 
   4   0   5   0   0   0   0   0   4   0   0   0   0   0   0   0   0   0   6   0   0   0   0   0   0   0   0   0   0   0   6   2 91 81 
   1   9   7   0   0   4   0   0   0   0   0   0   0   0   0   0   0   0   7   0   0   0   0   0   0   0   0   0   0   0   0   2 83 82 
  10   0   0   0   0   0   0   0   0   0   0   6   0   0   0   0   0   0   0   0   0   0   0   0   0   0   0   0   0   0   0   2 90 80 
   1   9   0   0   0  10   0   0   0   0   0   0   0   0   0   0   0   0   0   0   0   0   0   5   0   0   0   0   0   0   0   2 82 80 
   9   0   0   0   0   0   0   0   0   8   0   0   0   0   0   0   0   0   7   0   0   0   0   0   0   0   0   0   0   0   0   2 82 81 
   8   0   0   0  10   0   0   0   0   0   0   3   0   0   0   0   0   0   0   0   0   0   0   0   0   0   0   7   0   0   0   2 89 82 
   4   0   0   0   0   2   0   0   0   0   0   0   0   0   0   0   0   0   0   0   0   0   0   0   8   0   0   0   4   0   0   1 74 
   7   0  10   0   0   0   0   0   0   0   0   0   0   0   0   0   0   0   7   0   0   0   0   0   0   0   0   0   0   0   0   1 81 
  10   0   0   0   4   0  10   0   6   0   0   0   0   0   0   0   7   0   0   0   8   0   0   0   5   0   0   0   0   0   0   1 80 
   1   0   0   0   0   0   0   0   0   0   7   0   0   0   0   0   0   0   0   0   0   0   0   0   0   7   0   0   0   0   0   1 80 
   1   0   0   0   0   0   0   0   0   2   0   0   0   0   8   0   0   0   0   0   0   0   8   0   0   0   0   0   0   0   0   1 82 
  10   0   0   4   8   0   0   0   0   0   0   0   0   0   0   9   0   0   0   0   0   0   0   0   7   0   0   7   4   0   0   1 81 
   3   0   0   0   0   0   0   0   0   9   3   9   0   0   0   0   0   4   0   0   0   0   0   0   0   0   0   0   0   0   0   1 80 
   5   0   0   0   5   0   0   0   0   0   0   0   0   8   0   0   0   0   0   0   0   0   0   0   0   0   0   0   7   3   0   1 102
   3   0   0   0   0   0   0   4   9   6   0   4   0   0   0   0   0   5   7   0   0   0   0  10   5   0   0   0   0   3   4   1 102
   2   0   0   4   0   0   0   0   0   0   0   0   0   0   0   0   0   0   0   0   0   0   0   0   0   0   0   0   0   0   0   1 102
   4   0   0   0   0   0   0   0   0  10   0   0   0   0   0   0   0   0   0   0   0   0   0   0   0   0   3   0   0   0   0   1 102
   5   0   0   8   0   0   0   0   0   0   0   0   0   0   0   0   0   0   0   0   0   0   0   0   0   0   0   0   0   6   0   1 102
   9   0   0   0   0   0   0   0   0   8   0   0   0   0   4   0   5   0   0   9  10   0   0   7   0   0   0   6   0   0   0   1 102
  10   0   0   0   0   0   0   0   3   6   2   0   0   0   0   0   0   0   0   0   0   0   0   0   8   0   0   0   0   0   0   1 102
   8   0   0   0   0   0   0   0   0   0   0   0   0   0   0   9   0   0   0   0   0   0   0   0   0   5   0   0   0   6   0   1 102
   5   0   9   0   0   0   0   5   0   0   0   0   0   0   0   0   0   0   0   0   0   0   0   0   0   0   0   0   0   0   0   1 102
  10   0   0   0   0   0   7   0   0   0   6   0   0   0   8   0   0   0   5   0   0   0   0   0   0   0   0   0   0   0   0   1 102
   9   0   5   0   0   0   0   0   7   0   0   5   0   0   0   0   5   6   0   0   0   0   0   0   0   0   0   0   0   0   0   1 102
   4   0   0   9   0   0   0   0   0   0   0   0   0   0   0   0   0   4   0   7   0   0   0   0   0   0   0   4   0   6  10   1 102
   6   0   0   0   0   0   0   0   9   0   0   0   0   0   0   3   0   3   0   0   0   0   7   0   0   0   6   0   0   6   7   1 102
   9   0   0   0   0   0   0   7   0   2   5   0   0   0   0   0   0   0   0   0   0   0   0   0   0   3   0   0   0   0   0   1 102
  10   0   0   0   0   0   4   0   0   0   0   0   0   4   0   0   0   0   3   0   0   6   0   7   4   0   0   0   0   0   0   1 102
   4   0   0   0   0   0   0   0   0   0   0   0   0   3   7   0   0   0   0   0   0   0   0   0   0   0   0   0   0   0   0   1 102
   9   0   0   0   0   0   0   0   0   0   0   0   0   0   0   0   0   0   6   3   0   0   5   0   0   0   0   0   0   0   0   1 102
   5   0   0   0   0   0   0   5   0   0   0   0   0   0   0   0  10   0   0   0   0   0   0   0   0   0   0   0   0   0   5   1 102
   8   4   0   0   0   0   0   0   0   0   0  10   0   6   0   0   0   0   7   0   0   0   0   0   0   0   0   0   0   0   4   1 102
  10   0   0   0   0   0   0   0   0   0   0   0   0   0   0   0   0   0   0   0   0   0   0   0   0   0   0   0   0   0   0   1 102
   2   0   0   0   8   8   0   0   0   0   0   0   0   0   0   0   0   0   0   0   0   0   0   0   0   0   0   0   0   0   2   1 102
   3   0   8   0   0   0   0   0   0   0   0   0   0   9   7   0   0   0   0   0   8   0   0   0   0   0  10   0   0   0   0   1 102
   0   0   0   0   0   0   0   0   0   0   0   0   0   0   0   0   0   0   0   0   0   0   0   0   0   0   0   0   0   0   0   0 
